\* The Best Team *\
Maximize
OBJ: 9.2 ID_nfl.p.23997 + 7.5 ID_nfl.p.24060 + 2.3 ID_nfl.p.24063
 + 6 ID_nfl.p.24070 + 12.3 ID_nfl.p.24815 + 5.2 ID_nfl.p.24830
 + 3.1 ID_nfl.p.24913 + 1.3 ID_nfl.p.24923 + 4.8 ID_nfl.p.24936
 + 2.1 ID_nfl.p.24946 + 2.7 ID_nfl.p.24967 + 1.9 ID_nfl.p.24991
 + 2 ID_nfl.p.25158 + 13.6 ID_nfl.p.25718 + 10.9 ID_nfl.p.25755
 + 22.1 ID_nfl.p.25785 + 8.2 ID_nfl.p.25793 + 16.8 ID_nfl.p.25812
 + 4.1 ID_nfl.p.25828 + 11.9 ID_nfl.p.25876 + 9.1 ID_nfl.p.26060
 + 3.1 ID_nfl.p.26389 + 2.1 ID_nfl.p.26416 + 4.3 ID_nfl.p.26652
 + 10.9 ID_nfl.p.26658 + 0.8 ID_nfl.p.26662 + 16.4 ID_nfl.p.26671
 + 5.3 ID_nfl.p.26678 + 12.3 ID_nfl.p.26686 + 1.1 ID_nfl.p.26696
 + 12.6 ID_nfl.p.26699 + 10.5 ID_nfl.p.26721 + 3.5 ID_nfl.p.26781
 + 3.7 ID_nfl.p.26824 + 11.4 ID_nfl.p.26949 + 6.9 ID_nfl.p.27074
 + 2.9 ID_nfl.p.27174 + 12.5 ID_nfl.p.27277 + 5.2 ID_nfl.p.27299
 + 9.5 ID_nfl.p.27532 + 14.1 ID_nfl.p.27535 + 6.2 ID_nfl.p.27538
 + 11.9 ID_nfl.p.27540 + 16.6 ID_nfl.p.27564 + 6 ID_nfl.p.27573
 + 12.7 ID_nfl.p.27589 + 10.1 ID_nfl.p.27591 + 2.4 ID_nfl.p.27618
 + 12.1 ID_nfl.p.27619 + 2.2 ID_nfl.p.27648 + 4.3 ID_nfl.p.27789
 + 4.3 ID_nfl.p.27874 + 5.7 ID_nfl.p.28026 + 5.4 ID_nfl.p.28046
 + 1.5 ID_nfl.p.28068 + 8.5 ID_nfl.p.28115 + 3.5 ID_nfl.p.28214
 + 7 ID_nfl.p.28234 + 3.6 ID_nfl.p.28279 + 1.1 ID_nfl.p.28365
 + 17.2 ID_nfl.p.28389 + 11.4 ID_nfl.p.28390 + 9.6 ID_nfl.p.28402
 + 12.6 ID_nfl.p.28403 + 7.1 ID_nfl.p.28408 + 3.9 ID_nfl.p.28414
 + 9.2 ID_nfl.p.28417 + 2 ID_nfl.p.28442 + 14.2 ID_nfl.p.28457
 + 3.3 ID_nfl.p.28473 + 3.9 ID_nfl.p.28482 + 9.9 ID_nfl.p.28493
 + 1.3 ID_nfl.p.28505 + 2.6 ID_nfl.p.28514 + 1.2 ID_nfl.p.28531
 + 13.1 ID_nfl.p.28534 + 2.3 ID_nfl.p.28548 + 0.7 ID_nfl.p.28556
 + 2.8 ID_nfl.p.28559 + 12.9 ID_nfl.p.28592 + 11.8 ID_nfl.p.28691
 + 1.1 ID_nfl.p.28800 + 4.9 ID_nfl.p.28974 + 7.9 ID_nfl.p.29070
 + 16.2 ID_nfl.p.29236 + 3 ID_nfl.p.29257 + 12.1 ID_nfl.p.29269
 + 15.4 ID_nfl.p.29279 + 9.2 ID_nfl.p.29307 + 1.8 ID_nfl.p.29324
 + 15.1 ID_nfl.p.29325 + 2.3 ID_nfl.p.29328 + 2.6 ID_nfl.p.29341
 + 5.5 ID_nfl.p.29360 + ID_nfl.p.29370 + 5 ID_nfl.p.29374 + 5.9 ID_nfl.p.29377
 + 1.6 ID_nfl.p.29383 + 10.8 ID_nfl.p.29384 + 5.4 ID_nfl.p.29387
 + 4.7 ID_nfl.p.29397 + 13.8 ID_nfl.p.29399 + 3.6 ID_nfl.p.29406
 + 2.6 ID_nfl.p.29410 + 3.7 ID_nfl.p.29420 + 2.3 ID_nfl.p.29431
 + 1.8 ID_nfl.p.29432 + 13.1 ID_nfl.p.29435 + 7.8 ID_nfl.p.29560
 + 4.6 ID_nfl.p.29609 + 0.8 ID_nfl.p.29631 + 7.1 ID_nfl.p.29650
 + 1.2 ID_nfl.p.29666 + 7.4 ID_nfl.p.29719 + 10.8 ID_nfl.p.29785
 + 2.8 ID_nfl.p.29951 + 2.6 ID_nfl.p.29958 + 4.6 ID_nfl.p.30000
 + 4.1 ID_nfl.p.30023 + ID_nfl.p.30061 + 1.9 ID_nfl.p.30112
 + 14.2 ID_nfl.p.30115 + 9.2 ID_nfl.p.30118 + 11.3 ID_nfl.p.30120
 + 21.3 ID_nfl.p.30121 + 5 ID_nfl.p.30150 + 10.5 ID_nfl.p.30153
 + 19.7 ID_nfl.p.30154 + 2.3 ID_nfl.p.30158 + 12 ID_nfl.p.30175
 + 0.8 ID_nfl.p.30185 + 15.1 ID_nfl.p.30197 + 14 ID_nfl.p.30209
 + 6.5 ID_nfl.p.30213 + 3.5 ID_nfl.p.30231 + 8 ID_nfl.p.30232
 + 2.4 ID_nfl.p.30246 + 9.6 ID_nfl.p.30247 + 13.9 ID_nfl.p.30256
 + 3.6 ID_nfl.p.30267 + 1.5 ID_nfl.p.30285 + 16.7 ID_nfl.p.30295
 + 2.1 ID_nfl.p.30305 + 6.9 ID_nfl.p.30339 + 1.3 ID_nfl.p.30350
 + 15.9 ID_nfl.p.30362 + 13.1 ID_nfl.p.30423 + 2.4 ID_nfl.p.30430
 + 1.7 ID_nfl.p.30468 + 3.8 ID_nfl.p.30494 + 8 ID_nfl.p.30502
 + 3 ID_nfl.p.30571 + 4 ID_nfl.p.30661 + 2 ID_nfl.p.30850 + 5.3 ID_nfl.p.30860
 + 4.1 ID_nfl.p.30901 + 1.4 ID_nfl.p.30959 + 13.3 ID_nfl.p.30971
 + 16.1 ID_nfl.p.30973 + 18.8 ID_nfl.p.30977 + 2.4 ID_nfl.p.30980
 + 11.2 ID_nfl.p.30994 + 3.3 ID_nfl.p.30995 + 6.1 ID_nfl.p.30997
 + 12.3 ID_nfl.p.31001 + 18.8 ID_nfl.p.31002 + 16.6 ID_nfl.p.31005
 + 7.8 ID_nfl.p.31008 + 11.3 ID_nfl.p.31010 + 4.7 ID_nfl.p.31012
 + 6.3 ID_nfl.p.31019 + 8.1 ID_nfl.p.31021 + 6.8 ID_nfl.p.31030
 + 12.2 ID_nfl.p.31041 + 14.7 ID_nfl.p.31046 + 10.6 ID_nfl.p.31056
 + 1.8 ID_nfl.p.31071 + 7.1 ID_nfl.p.31074 + 4.9 ID_nfl.p.31075
 + 2.9 ID_nfl.p.31077 + 10.1 ID_nfl.p.31082 + 6.2 ID_nfl.p.31083
 + 1.2 ID_nfl.p.31093 + 6.4 ID_nfl.p.31100 + 1.5 ID_nfl.p.31114
 + 0.8 ID_nfl.p.31127 + 10.3 ID_nfl.p.31135 + 4.1 ID_nfl.p.31139
 + 8.2 ID_nfl.p.31144 + 2.3 ID_nfl.p.31155 + 4 ID_nfl.p.31171
 + 2.3 ID_nfl.p.31180 + 3 ID_nfl.p.31194 + 1.7 ID_nfl.p.31198
 + 1.4 ID_nfl.p.31207 + 0.9 ID_nfl.p.31221 + 5.3 ID_nfl.p.31226
 + 0.9 ID_nfl.p.31228 + 1.6 ID_nfl.p.31257 + 7.7 ID_nfl.p.31268
 + 14.5 ID_nfl.p.31301 + 3 ID_nfl.p.31302 + 13.5 ID_nfl.p.31379
 + 4.7 ID_nfl.p.31424 + 4.1 ID_nfl.p.31457 + 0.9 ID_nfl.p.31496
 + 4.4 ID_nfl.p.31500 + 3.1 ID_nfl.p.31588 + 3 ID_nfl.p.31601
 + 3.4 ID_nfl.p.31777 + 7.2 ID_nfl.p.31840 + 13 ID_nfl.p.31847
 + 5.2 ID_nfl.p.31852 + 16.1 ID_nfl.p.31856 + 4.4 ID_nfl.p.31882
 + 8.8 ID_nfl.p.31883 + 9.1 ID_nfl.p.31885 + 5.8 ID_nfl.p.31888
 + 2.1 ID_nfl.p.31889 + 4.9 ID_nfl.p.31891 + 11.4 ID_nfl.p.31896
 + 9.2 ID_nfl.p.31898 + 10.7 ID_nfl.p.31905 + 9.4 ID_nfl.p.31906
 + 10.6 ID_nfl.p.31908 + ID_nfl.p.31919 + 4.9 ID_nfl.p.31925
 + 4.2 ID_nfl.p.31928 + 7.4 ID_nfl.p.31934 + 3.5 ID_nfl.p.31945
 + 1.2 ID_nfl.p.31965 + 3.7 ID_nfl.p.31969 + 7.1 ID_nfl.p.31981
 + 1.6 ID_nfl.p.31986 + 8.5 ID_nfl.p.32018 + 2.1 ID_nfl.p.32019
 + ID_nfl.p.32026 + 0.8 ID_nfl.p.32036 + 3.1 ID_nfl.p.32038
 + 2.6 ID_nfl.p.32040 + 6.8 ID_nfl.p.32079 + 3.1 ID_nfl.p.32187
 + 1.6 ID_nfl.p.32225 + 5 ID_nfl.p.32231 + 1.7 ID_nfl.p.32295
 + 2.1 ID_nfl.p.32342 + 0.8 ID_nfl.p.32344 + 1.2 ID_nfl.p.32439
 + 9.6 ID_nfl.p.32447 + 0.7 ID_nfl.p.32547 + 0.7 ID_nfl.p.32581
 + 0.9 ID_nfl.p.32596 + 1.6 ID_nfl.p.32608 + 17.6 ID_nfl.p.5228
 + 0.9 ID_nfl.p.5967 + 16 ID_nfl.p.6763 + 4.3 ID_nfl.p.6791 + 20 ID_nfl.p.7200
 + 9.2 ID_nfl.p.7241 + 1.8 ID_nfl.p.7306 + 13.3 ID_nfl.p.7426
 + 2.5 ID_nfl.p.7777 + 10.6 ID_nfl.p.8261 + 8.8 ID_nfl.p.8285
 + 13.8 ID_nfl.p.8544 + 3.9 ID_nfl.p.8826 + 8.8 ID_nfl.p.9037
 + 19 ID_nfl.p.9265 + 9.8 ID_nfl.p.9317 + 7.1 ID_nfl.t.10 + 6.7 ID_nfl.t.11
 + 6.2 ID_nfl.t.12 + 6.1 ID_nfl.t.13 + 6.1 ID_nfl.t.15 + 7.7 ID_nfl.t.16
 + 9.5 ID_nfl.t.17 + 10.7 ID_nfl.t.2 + 8.2 ID_nfl.t.20 + 9.5 ID_nfl.t.21
 + 6.7 ID_nfl.t.23 + 6 ID_nfl.t.24 + 8.5 ID_nfl.t.26 + 5.8 ID_nfl.t.27
 + 6.3 ID_nfl.t.28 + 8.8 ID_nfl.t.29 + 6.7 ID_nfl.t.3 + 5.9 ID_nfl.t.33
 + 8.2 ID_nfl.t.5 + 8 ID_nfl.t.7 + 6.3 ID_nfl.t.8 + 7.6 ID_nfl.t.9
Subject To
_C1: 13 ID_nfl.p.23997 + 20 ID_nfl.p.24060 + 10 ID_nfl.p.24063
 + 12 ID_nfl.p.24070 + 18 ID_nfl.p.24815 + 11 ID_nfl.p.24830
 + 10 ID_nfl.p.24834 + 10 ID_nfl.p.24913 + 10 ID_nfl.p.24923
 + 10 ID_nfl.p.24936 + 10 ID_nfl.p.24946 + 20 ID_nfl.p.24967
 + 10 ID_nfl.p.24991 + 10 ID_nfl.p.25158 + 10 ID_nfl.p.25295
 + 10 ID_nfl.p.25370 + 20 ID_nfl.p.25712 + 20 ID_nfl.p.25718
 + 19 ID_nfl.p.25755 + 38 ID_nfl.p.25785 + 14 ID_nfl.p.25793
 + 31 ID_nfl.p.25812 + 10 ID_nfl.p.25828 + 18 ID_nfl.p.25876
 + 10 ID_nfl.p.26016 + 10 ID_nfl.p.26050 + 14 ID_nfl.p.26060
 + 10 ID_nfl.p.26389 + 10 ID_nfl.p.26416 + 10 ID_nfl.p.26652
 + 16 ID_nfl.p.26658 + 20 ID_nfl.p.26662 + 26 ID_nfl.p.26671
 + 14 ID_nfl.p.26678 + 22 ID_nfl.p.26686 + 20 ID_nfl.p.26696
 + 26 ID_nfl.p.26699 + 20 ID_nfl.p.26721 + 10 ID_nfl.p.26781
 + 13 ID_nfl.p.26824 + 20 ID_nfl.p.26949 + 14 ID_nfl.p.27074
 + 11 ID_nfl.p.27174 + 28 ID_nfl.p.27277 + 12 ID_nfl.p.27299
 + 10 ID_nfl.p.27494 + 19 ID_nfl.p.27532 + 30 ID_nfl.p.27535
 + 16 ID_nfl.p.27538 + 25 ID_nfl.p.27540 + 27 ID_nfl.p.27564
 + 10 ID_nfl.p.27573 + 28 ID_nfl.p.27589 + 15 ID_nfl.p.27591
 + 10 ID_nfl.p.27618 + 23 ID_nfl.p.27619 + 10 ID_nfl.p.27648
 + 10 ID_nfl.p.27670 + 20 ID_nfl.p.27711 + 20 ID_nfl.p.27742
 + 10 ID_nfl.p.27789 + 10 ID_nfl.p.27874 + 10 ID_nfl.p.28026
 + 10 ID_nfl.p.28046 + 10 ID_nfl.p.28068 + 13 ID_nfl.p.28115
 + 10 ID_nfl.p.28214 + 10 ID_nfl.p.28221 + 10 ID_nfl.p.28223
 + 15 ID_nfl.p.28234 + 10 ID_nfl.p.28279 + 10 ID_nfl.p.28365
 + 29 ID_nfl.p.28389 + 20 ID_nfl.p.28390 + 13 ID_nfl.p.28402
 + 20 ID_nfl.p.28403 + 12 ID_nfl.p.28408 + 10 ID_nfl.p.28414
 + 13 ID_nfl.p.28417 + 10 ID_nfl.p.28442 + 28 ID_nfl.p.28457
 + 10 ID_nfl.p.28473 + 20 ID_nfl.p.28477 + 10 ID_nfl.p.28482
 + 14 ID_nfl.p.28493 + 10 ID_nfl.p.28505 + 10 ID_nfl.p.28514
 + 10 ID_nfl.p.28531 + 31 ID_nfl.p.28534 + 10 ID_nfl.p.28548
 + 10 ID_nfl.p.28556 + 10 ID_nfl.p.28559 + 10 ID_nfl.p.28582
 + 21 ID_nfl.p.28592 + 10 ID_nfl.p.28658 + 20 ID_nfl.p.28691
 + 10 ID_nfl.p.28718 + 10 ID_nfl.p.28800 + 10 ID_nfl.p.28974
 + 10 ID_nfl.p.29038 + 11 ID_nfl.p.29070 + 10 ID_nfl.p.29102
 + 30 ID_nfl.p.29236 + 10 ID_nfl.p.29257 + 21 ID_nfl.p.29269
 + 19 ID_nfl.p.29279 + 12 ID_nfl.p.29307 + 10 ID_nfl.p.29324
 + 30 ID_nfl.p.29325 + 20 ID_nfl.p.29327 + 10 ID_nfl.p.29328
 + 10 ID_nfl.p.29341 + 11 ID_nfl.p.29360 + 10 ID_nfl.p.29370
 + 10 ID_nfl.p.29374 + 10 ID_nfl.p.29377 + 10 ID_nfl.p.29383
 + 19 ID_nfl.p.29384 + 10 ID_nfl.p.29387 + 10 ID_nfl.p.29397
 + 33 ID_nfl.p.29399 + 10 ID_nfl.p.29406 + 10 ID_nfl.p.29410
 + 10 ID_nfl.p.29420 + 10 ID_nfl.p.29431 + 10 ID_nfl.p.29432
 + 20 ID_nfl.p.29435 + 20 ID_nfl.p.29441 + 13 ID_nfl.p.29560
 + 10 ID_nfl.p.29609 + 10 ID_nfl.p.29631 + 10 ID_nfl.p.29650
 + 10 ID_nfl.p.29666 + 15 ID_nfl.p.29719 + 17 ID_nfl.p.29785
 + 10 ID_nfl.p.29913 + 10 ID_nfl.p.29951 + 10 ID_nfl.p.29958
 + 10 ID_nfl.p.30000 + 11 ID_nfl.p.30023 + 10 ID_nfl.p.30061
 + 10 ID_nfl.p.30112 + 20 ID_nfl.p.30115 + 13 ID_nfl.p.30118
 + 17 ID_nfl.p.30120 + 40 ID_nfl.p.30121 + 10 ID_nfl.p.30150
 + 18 ID_nfl.p.30153 + 39 ID_nfl.p.30154 + 10 ID_nfl.p.30158
 + 20 ID_nfl.p.30165 + 25 ID_nfl.p.30175 + 10 ID_nfl.p.30185
 + 29 ID_nfl.p.30197 + 25 ID_nfl.p.30209 + 12 ID_nfl.p.30213
 + 10 ID_nfl.p.30219 + 10 ID_nfl.p.30231 + 11 ID_nfl.p.30232
 + 10 ID_nfl.p.30246 + 15 ID_nfl.p.30247 + 23 ID_nfl.p.30256
 + 10 ID_nfl.p.30267 + 10 ID_nfl.p.30285 + 10 ID_nfl.p.30292
 + 29 ID_nfl.p.30295 + 10 ID_nfl.p.30305 + 10 ID_nfl.p.30339
 + 10 ID_nfl.p.30350 + 22 ID_nfl.p.30362 + 19 ID_nfl.p.30423
 + 10 ID_nfl.p.30430 + 10 ID_nfl.p.30468 + 12 ID_nfl.p.30494
 + 14 ID_nfl.p.30502 + 10 ID_nfl.p.30571 + 10 ID_nfl.p.30592
 + 13 ID_nfl.p.30661 + 10 ID_nfl.p.30795 + 10 ID_nfl.p.30850
 + 10 ID_nfl.p.30860 + 10 ID_nfl.p.30901 + 10 ID_nfl.p.30959
 + 23 ID_nfl.p.30971 + 26 ID_nfl.p.30973 + 27 ID_nfl.p.30977
 + 20 ID_nfl.p.30980 + 19 ID_nfl.p.30994 + 10 ID_nfl.p.30995
 + 11 ID_nfl.p.30997 + 19 ID_nfl.p.31001 + 37 ID_nfl.p.31002
 + 31 ID_nfl.p.31005 + 14 ID_nfl.p.31008 + 21 ID_nfl.p.31010
 + 10 ID_nfl.p.31012 + 12 ID_nfl.p.31019 + 10 ID_nfl.p.31021
 + 10 ID_nfl.p.31030 + 16 ID_nfl.p.31041 + 22 ID_nfl.p.31046
 + 17 ID_nfl.p.31056 + 10 ID_nfl.p.31071 + 10 ID_nfl.p.31074
 + 10 ID_nfl.p.31075 + 16 ID_nfl.p.31077 + 15 ID_nfl.p.31082
 + 13 ID_nfl.p.31083 + 10 ID_nfl.p.31093 + 11 ID_nfl.p.31100
 + 10 ID_nfl.p.31102 + 10 ID_nfl.p.31114 + 10 ID_nfl.p.31126
 + 10 ID_nfl.p.31127 + 12 ID_nfl.p.31135 + 10 ID_nfl.p.31139
 + 16 ID_nfl.p.31144 + 10 ID_nfl.p.31148 + 10 ID_nfl.p.31155
 + 10 ID_nfl.p.31171 + 10 ID_nfl.p.31180 + 10 ID_nfl.p.31194
 + 10 ID_nfl.p.31198 + 10 ID_nfl.p.31207 + 10 ID_nfl.p.31221
 + 10 ID_nfl.p.31226 + 10 ID_nfl.p.31228 + 10 ID_nfl.p.31257
 + 10 ID_nfl.p.31268 + 10 ID_nfl.p.31278 + 27 ID_nfl.p.31301
 + 10 ID_nfl.p.31302 + 21 ID_nfl.p.31379 + 10 ID_nfl.p.31424
 + 20 ID_nfl.p.31431 + 11 ID_nfl.p.31457 + 10 ID_nfl.p.31496
 + 10 ID_nfl.p.31500 + 10 ID_nfl.p.31519 + 10 ID_nfl.p.31588
 + 10 ID_nfl.p.31601 + 10 ID_nfl.p.31769 + 10 ID_nfl.p.31777
 + 13 ID_nfl.p.31840 + 20 ID_nfl.p.31847 + 10 ID_nfl.p.31852
 + 24 ID_nfl.p.31856 + 10 ID_nfl.p.31864 + 10 ID_nfl.p.31882
 + 13 ID_nfl.p.31883 + 15 ID_nfl.p.31885 + 13 ID_nfl.p.31888
 + 10 ID_nfl.p.31889 + 10 ID_nfl.p.31891 + 18 ID_nfl.p.31896
 + 12 ID_nfl.p.31898 + 18 ID_nfl.p.31905 + 16 ID_nfl.p.31906
 + 10 ID_nfl.p.31907 + 17 ID_nfl.p.31908 + 10 ID_nfl.p.31919
 + 10 ID_nfl.p.31925 + 10 ID_nfl.p.31928 + 20 ID_nfl.p.31932
 + 14 ID_nfl.p.31934 + 10 ID_nfl.p.31945 + 10 ID_nfl.p.31952
 + 10 ID_nfl.p.31953 + 20 ID_nfl.p.31965 + 10 ID_nfl.p.31969
 + 11 ID_nfl.p.31981 + 10 ID_nfl.p.31986 + 20 ID_nfl.p.31998
 + 13 ID_nfl.p.32018 + 10 ID_nfl.p.32019 + 10 ID_nfl.p.32026
 + 20 ID_nfl.p.32029 + 10 ID_nfl.p.32036 + 10 ID_nfl.p.32038
 + 10 ID_nfl.p.32040 + 10 ID_nfl.p.32065 + 10 ID_nfl.p.32068
 + 12 ID_nfl.p.32079 + 10 ID_nfl.p.32141 + 10 ID_nfl.p.32187
 + 10 ID_nfl.p.32225 + 10 ID_nfl.p.32231 + 20 ID_nfl.p.32272
 + 10 ID_nfl.p.32292 + 10 ID_nfl.p.32295 + 10 ID_nfl.p.32342
 + 10 ID_nfl.p.32344 + 20 ID_nfl.p.32366 + 10 ID_nfl.p.32378
 + 10 ID_nfl.p.32439 + 13 ID_nfl.p.32447 + 10 ID_nfl.p.32523
 + 10 ID_nfl.p.32547 + 20 ID_nfl.p.32581 + 10 ID_nfl.p.32596
 + 10 ID_nfl.p.32608 + 31 ID_nfl.p.5228 + 20 ID_nfl.p.5967 + 27 ID_nfl.p.6763
 + 10 ID_nfl.p.6791 + 35 ID_nfl.p.7200 + 14 ID_nfl.p.7241 + 10 ID_nfl.p.7306
 + 21 ID_nfl.p.7426 + 10 ID_nfl.p.7777 + 16 ID_nfl.p.8261 + 14 ID_nfl.p.8285
 + 27 ID_nfl.p.8544 + 16 ID_nfl.p.8826 + 20 ID_nfl.p.8834 + 10 ID_nfl.p.8930
 + 15 ID_nfl.p.9037 + 35 ID_nfl.p.9265 + 15 ID_nfl.p.9317 + 20 ID_nfl.p.9547
 + 21 ID_nfl.p.9678 + 17 ID_nfl.t.10 + 10 ID_nfl.t.11 + 16 ID_nfl.t.12
 + 10 ID_nfl.t.13 + 13 ID_nfl.t.15 + 13 ID_nfl.t.16 + 20 ID_nfl.t.17
 + 19 ID_nfl.t.2 + 18 ID_nfl.t.20 + 14 ID_nfl.t.21 + 16 ID_nfl.t.23
 + 10 ID_nfl.t.24 + 15 ID_nfl.t.26 + 14 ID_nfl.t.27 + 11 ID_nfl.t.28
 + 19 ID_nfl.t.29 + 19 ID_nfl.t.3 + 12 ID_nfl.t.33 + 12 ID_nfl.t.5
 + 12 ID_nfl.t.7 + 10 ID_nfl.t.8 + 15 ID_nfl.t.9 <= 200
_C10: ID_nfl.p.23997 + ID_nfl.p.24060 + ID_nfl.p.24063 + ID_nfl.p.24070
 + ID_nfl.p.24815 + ID_nfl.p.24830 + ID_nfl.p.24834 + ID_nfl.p.24913
 + ID_nfl.p.24923 + ID_nfl.p.24936 + ID_nfl.p.24946 + ID_nfl.p.24967
 + ID_nfl.p.24991 + ID_nfl.p.25158 + ID_nfl.p.25295 + ID_nfl.p.25370
 + ID_nfl.p.25712 + ID_nfl.p.25718 + ID_nfl.p.25755 + ID_nfl.p.25785
 + ID_nfl.p.25793 + ID_nfl.p.25812 + ID_nfl.p.25828 + ID_nfl.p.25876
 + ID_nfl.p.26016 + ID_nfl.p.26050 + ID_nfl.p.26060 + ID_nfl.p.26389
 + ID_nfl.p.26416 + ID_nfl.p.26652 + ID_nfl.p.26658 + ID_nfl.p.26662
 + ID_nfl.p.26671 + ID_nfl.p.26678 + ID_nfl.p.26686 + ID_nfl.p.26696
 + ID_nfl.p.26699 + ID_nfl.p.26721 + ID_nfl.p.26781 + ID_nfl.p.26824
 + ID_nfl.p.26949 + ID_nfl.p.27074 + ID_nfl.p.27174 + ID_nfl.p.27277
 + ID_nfl.p.27299 + ID_nfl.p.27494 + ID_nfl.p.27532 + ID_nfl.p.27535
 + ID_nfl.p.27538 + ID_nfl.p.27540 + ID_nfl.p.27564 + ID_nfl.p.27573
 + ID_nfl.p.27589 + ID_nfl.p.27591 + ID_nfl.p.27618 + ID_nfl.p.27619
 + ID_nfl.p.27648 + ID_nfl.p.27670 + ID_nfl.p.27711 + ID_nfl.p.27742
 + ID_nfl.p.27789 + ID_nfl.p.27874 + ID_nfl.p.28026 + ID_nfl.p.28046
 + ID_nfl.p.28068 + ID_nfl.p.28115 + ID_nfl.p.28214 + ID_nfl.p.28221
 + ID_nfl.p.28223 + ID_nfl.p.28234 + ID_nfl.p.28279 + ID_nfl.p.28365
 + ID_nfl.p.28389 + ID_nfl.p.28390 + ID_nfl.p.28402 + ID_nfl.p.28403
 + ID_nfl.p.28408 + ID_nfl.p.28414 + ID_nfl.p.28417 + ID_nfl.p.28442
 + ID_nfl.p.28457 + ID_nfl.p.28473 + ID_nfl.p.28477 + ID_nfl.p.28482
 + ID_nfl.p.28493 + ID_nfl.p.28505 + ID_nfl.p.28514 + ID_nfl.p.28531
 + ID_nfl.p.28534 + ID_nfl.p.28548 + ID_nfl.p.28556 + ID_nfl.p.28559
 + ID_nfl.p.28582 + ID_nfl.p.28592 + ID_nfl.p.28658 + ID_nfl.p.28691
 + ID_nfl.p.28718 + ID_nfl.p.28800 + ID_nfl.p.28974 + ID_nfl.p.29038
 + ID_nfl.p.29070 + ID_nfl.p.29102 + ID_nfl.p.29236 + ID_nfl.p.29257
 + ID_nfl.p.29269 + ID_nfl.p.29279 + ID_nfl.p.29307 + ID_nfl.p.29324
 + ID_nfl.p.29325 + ID_nfl.p.29327 + ID_nfl.p.29328 + ID_nfl.p.29341
 + ID_nfl.p.29360 + ID_nfl.p.29370 + ID_nfl.p.29374 + ID_nfl.p.29377
 + ID_nfl.p.29383 + ID_nfl.p.29384 + ID_nfl.p.29387 + ID_nfl.p.29397
 + ID_nfl.p.29399 + ID_nfl.p.29406 + ID_nfl.p.29410 + ID_nfl.p.29420
 + ID_nfl.p.29431 + ID_nfl.p.29432 + ID_nfl.p.29435 + ID_nfl.p.29441
 + ID_nfl.p.29560 + ID_nfl.p.29609 + ID_nfl.p.29631 + ID_nfl.p.29650
 + ID_nfl.p.29666 + ID_nfl.p.29719 + ID_nfl.p.29785 + ID_nfl.p.29913
 + ID_nfl.p.29951 + ID_nfl.p.29958 + ID_nfl.p.30000 + ID_nfl.p.30023
 + ID_nfl.p.30061 + ID_nfl.p.30112 + ID_nfl.p.30115 + ID_nfl.p.30118
 + ID_nfl.p.30120 + ID_nfl.p.30121 + ID_nfl.p.30150 + ID_nfl.p.30153
 + ID_nfl.p.30154 + ID_nfl.p.30158 + ID_nfl.p.30165 + ID_nfl.p.30175
 + ID_nfl.p.30185 + ID_nfl.p.30197 + ID_nfl.p.30209 + ID_nfl.p.30213
 + ID_nfl.p.30219 + ID_nfl.p.30231 + ID_nfl.p.30232 + ID_nfl.p.30246
 + ID_nfl.p.30247 + ID_nfl.p.30256 + ID_nfl.p.30267 + ID_nfl.p.30285
 + ID_nfl.p.30292 + ID_nfl.p.30295 + ID_nfl.p.30305 + ID_nfl.p.30339
 + ID_nfl.p.30350 + ID_nfl.p.30362 + ID_nfl.p.30423 + ID_nfl.p.30430
 + ID_nfl.p.30468 + ID_nfl.p.30494 + ID_nfl.p.30502 + ID_nfl.p.30571
 + ID_nfl.p.30592 + ID_nfl.p.30661 + ID_nfl.p.30795 + ID_nfl.p.30850
 + ID_nfl.p.30860 + ID_nfl.p.30901 + ID_nfl.p.30959 + ID_nfl.p.30971
 + ID_nfl.p.30973 + ID_nfl.p.30977 + ID_nfl.p.30980 + ID_nfl.p.30994
 + ID_nfl.p.30995 + ID_nfl.p.30997 + ID_nfl.p.31001 + ID_nfl.p.31002
 + ID_nfl.p.31005 + ID_nfl.p.31008 + ID_nfl.p.31010 + ID_nfl.p.31012
 + ID_nfl.p.31019 + ID_nfl.p.31021 + ID_nfl.p.31030 + ID_nfl.p.31041
 + ID_nfl.p.31046 + ID_nfl.p.31056 + ID_nfl.p.31071 + ID_nfl.p.31074
 + ID_nfl.p.31075 + ID_nfl.p.31077 + ID_nfl.p.31082 + ID_nfl.p.31083
 + ID_nfl.p.31093 + ID_nfl.p.31100 + ID_nfl.p.31102 + ID_nfl.p.31114
 + ID_nfl.p.31126 + ID_nfl.p.31127 + ID_nfl.p.31135 + ID_nfl.p.31139
 + ID_nfl.p.31144 + ID_nfl.p.31148 + ID_nfl.p.31155 + ID_nfl.p.31171
 + ID_nfl.p.31180 + ID_nfl.p.31194 + ID_nfl.p.31198 + ID_nfl.p.31207
 + ID_nfl.p.31221 + ID_nfl.p.31226 + ID_nfl.p.31228 + ID_nfl.p.31257
 + ID_nfl.p.31268 + ID_nfl.p.31278 + ID_nfl.p.31301 + ID_nfl.p.31302
 + ID_nfl.p.31379 + ID_nfl.p.31424 + ID_nfl.p.31431 + ID_nfl.p.31457
 + ID_nfl.p.31496 + ID_nfl.p.31500 + ID_nfl.p.31519 + ID_nfl.p.31588
 + ID_nfl.p.31601 + ID_nfl.p.31769 + ID_nfl.p.31777 + ID_nfl.p.31840
 + ID_nfl.p.31847 + ID_nfl.p.31852 + ID_nfl.p.31856 + ID_nfl.p.31864
 + ID_nfl.p.31882 + ID_nfl.p.31883 + ID_nfl.p.31885 + ID_nfl.p.31888
 + ID_nfl.p.31889 + ID_nfl.p.31891 + ID_nfl.p.31896 + ID_nfl.p.31898
 + ID_nfl.p.31905 + ID_nfl.p.31906 + ID_nfl.p.31907 + ID_nfl.p.31908
 + ID_nfl.p.31919 + ID_nfl.p.31925 + ID_nfl.p.31928 + ID_nfl.p.31932
 + ID_nfl.p.31934 + ID_nfl.p.31945 + ID_nfl.p.31952 + ID_nfl.p.31953
 + ID_nfl.p.31965 + ID_nfl.p.31969 + ID_nfl.p.31981 + ID_nfl.p.31986
 + ID_nfl.p.31998 + ID_nfl.p.32018 + ID_nfl.p.32019 + ID_nfl.p.32026
 + ID_nfl.p.32029 + ID_nfl.p.32036 + ID_nfl.p.32038 + ID_nfl.p.32040
 + ID_nfl.p.32065 + ID_nfl.p.32068 + ID_nfl.p.32079 + ID_nfl.p.32141
 + ID_nfl.p.32187 + ID_nfl.p.32225 + ID_nfl.p.32231 + ID_nfl.p.32272
 + ID_nfl.p.32292 + ID_nfl.p.32295 + ID_nfl.p.32342 + ID_nfl.p.32344
 + ID_nfl.p.32366 + ID_nfl.p.32378 + ID_nfl.p.32439 + ID_nfl.p.32447
 + ID_nfl.p.32523 + ID_nfl.p.32547 + ID_nfl.p.32581 + ID_nfl.p.32596
 + ID_nfl.p.32608 + ID_nfl.p.5228 + ID_nfl.p.5967 + ID_nfl.p.6763
 + ID_nfl.p.6791 + ID_nfl.p.7200 + ID_nfl.p.7241 + ID_nfl.p.7306
 + ID_nfl.p.7426 + ID_nfl.p.7777 + ID_nfl.p.8261 + ID_nfl.p.8285
 + ID_nfl.p.8544 + ID_nfl.p.8826 + ID_nfl.p.8834 + ID_nfl.p.8930
 + ID_nfl.p.9037 + ID_nfl.p.9265 + ID_nfl.p.9317 + ID_nfl.p.9547
 + ID_nfl.p.9678 + ID_nfl.t.10 + ID_nfl.t.11 + ID_nfl.t.12 + ID_nfl.t.13
 + ID_nfl.t.15 + ID_nfl.t.16 + ID_nfl.t.17 + ID_nfl.t.2 + ID_nfl.t.20
 + ID_nfl.t.21 + ID_nfl.t.23 + ID_nfl.t.24 + ID_nfl.t.26 + ID_nfl.t.27
 + ID_nfl.t.28 + ID_nfl.t.29 + ID_nfl.t.3 + ID_nfl.t.33 + ID_nfl.t.5
 + ID_nfl.t.7 + ID_nfl.t.8 + ID_nfl.t.9 = 9
_C2: ID_nfl.p.24060 + ID_nfl.p.24967 + ID_nfl.p.25712 + ID_nfl.p.25718
 + ID_nfl.p.25785 + ID_nfl.p.25812 + ID_nfl.p.26662 + ID_nfl.p.26696
 + ID_nfl.p.26721 + ID_nfl.p.26949 + ID_nfl.p.27564 + ID_nfl.p.27711
 + ID_nfl.p.27742 + ID_nfl.p.28389 + ID_nfl.p.28390 + ID_nfl.p.28477
 + ID_nfl.p.29236 + ID_nfl.p.29325 + ID_nfl.p.29327 + ID_nfl.p.29435
 + ID_nfl.p.29441 + ID_nfl.p.30115 + ID_nfl.p.30165 + ID_nfl.p.30971
 + ID_nfl.p.30973 + ID_nfl.p.30977 + ID_nfl.p.30980 + ID_nfl.p.31002
 + ID_nfl.p.31046 + ID_nfl.p.31301 + ID_nfl.p.31431 + ID_nfl.p.31847
 + ID_nfl.p.31932 + ID_nfl.p.31965 + ID_nfl.p.31998 + ID_nfl.p.32029
 + ID_nfl.p.32272 + ID_nfl.p.32366 + ID_nfl.p.32581 + ID_nfl.p.5228
 + ID_nfl.p.5967 + ID_nfl.p.6763 + ID_nfl.p.7200 + ID_nfl.p.7426
 + ID_nfl.p.8544 + ID_nfl.p.8834 + ID_nfl.p.9265 + ID_nfl.p.9547
 + ID_nfl.p.9678 = 1
_C3: ID_nfl.t.10 + ID_nfl.t.11 + ID_nfl.t.12 + ID_nfl.t.13 + ID_nfl.t.15
 + ID_nfl.t.16 + ID_nfl.t.17 + ID_nfl.t.2 + ID_nfl.t.20 + ID_nfl.t.21
 + ID_nfl.t.23 + ID_nfl.t.24 + ID_nfl.t.26 + ID_nfl.t.27 + ID_nfl.t.28
 + ID_nfl.t.29 + ID_nfl.t.3 + ID_nfl.t.33 + ID_nfl.t.5 + ID_nfl.t.7
 + ID_nfl.t.8 + ID_nfl.t.9 = 1
_C4: ID_nfl.p.24815 + ID_nfl.p.24913 + ID_nfl.p.24923 + ID_nfl.p.24936
 + ID_nfl.p.25158 + ID_nfl.p.25295 + ID_nfl.p.26389 + ID_nfl.p.26671
 + ID_nfl.p.28068 + ID_nfl.p.28115 + ID_nfl.p.28223 + ID_nfl.p.28403
 + ID_nfl.p.28442 + ID_nfl.p.28482 + ID_nfl.p.28514 + ID_nfl.p.28556
 + ID_nfl.p.28718 + ID_nfl.p.29279 + ID_nfl.p.29307 + ID_nfl.p.29324
 + ID_nfl.p.29370 + ID_nfl.p.29377 + ID_nfl.p.29383 + ID_nfl.p.29384
 + ID_nfl.p.29387 + ID_nfl.p.29410 + ID_nfl.p.29431 + ID_nfl.p.29432
 + ID_nfl.p.29560 + ID_nfl.p.29650 + ID_nfl.p.29951 + ID_nfl.p.30000
 + ID_nfl.p.30061 + ID_nfl.p.30121 + ID_nfl.p.30154 + ID_nfl.p.30232
 + ID_nfl.p.30247 + ID_nfl.p.30256 + ID_nfl.p.30292 + ID_nfl.p.30295
 + ID_nfl.p.30305 + ID_nfl.p.30362 + ID_nfl.p.30423 + ID_nfl.p.30592
 + ID_nfl.p.30850 + ID_nfl.p.30860 + ID_nfl.p.30997 + ID_nfl.p.31001
 + ID_nfl.p.31005 + ID_nfl.p.31008 + ID_nfl.p.31041 + ID_nfl.p.31074
 + ID_nfl.p.31082 + ID_nfl.p.31100 + ID_nfl.p.31135 + ID_nfl.p.31139
 + ID_nfl.p.31171 + ID_nfl.p.31207 + ID_nfl.p.31221 + ID_nfl.p.31228
 + ID_nfl.p.31278 + ID_nfl.p.31302 + ID_nfl.p.31379 + ID_nfl.p.31424
 + ID_nfl.p.31457 + ID_nfl.p.31500 + ID_nfl.p.31856 + ID_nfl.p.31885
 + ID_nfl.p.31905 + ID_nfl.p.31906 + ID_nfl.p.31919 + ID_nfl.p.31934
 + ID_nfl.p.31945 + ID_nfl.p.31986 + ID_nfl.p.32018 + ID_nfl.p.32026
 + ID_nfl.p.32036 + ID_nfl.p.32065 + ID_nfl.p.32344 + ID_nfl.p.32439
 + ID_nfl.p.32596 + ID_nfl.p.32608 + ID_nfl.p.7241 + ID_nfl.p.7306
 + ID_nfl.p.8261 + ID_nfl.p.9317 >= 2
_C5: ID_nfl.p.24815 + ID_nfl.p.24913 + ID_nfl.p.24923 + ID_nfl.p.24936
 + ID_nfl.p.25158 + ID_nfl.p.25295 + ID_nfl.p.26389 + ID_nfl.p.26671
 + ID_nfl.p.28068 + ID_nfl.p.28115 + ID_nfl.p.28223 + ID_nfl.p.28403
 + ID_nfl.p.28442 + ID_nfl.p.28482 + ID_nfl.p.28514 + ID_nfl.p.28556
 + ID_nfl.p.28718 + ID_nfl.p.29279 + ID_nfl.p.29307 + ID_nfl.p.29324
 + ID_nfl.p.29370 + ID_nfl.p.29377 + ID_nfl.p.29383 + ID_nfl.p.29384
 + ID_nfl.p.29387 + ID_nfl.p.29410 + ID_nfl.p.29431 + ID_nfl.p.29432
 + ID_nfl.p.29560 + ID_nfl.p.29650 + ID_nfl.p.29951 + ID_nfl.p.30000
 + ID_nfl.p.30061 + ID_nfl.p.30121 + ID_nfl.p.30154 + ID_nfl.p.30232
 + ID_nfl.p.30247 + ID_nfl.p.30256 + ID_nfl.p.30292 + ID_nfl.p.30295
 + ID_nfl.p.30305 + ID_nfl.p.30362 + ID_nfl.p.30423 + ID_nfl.p.30592
 + ID_nfl.p.30850 + ID_nfl.p.30860 + ID_nfl.p.30997 + ID_nfl.p.31001
 + ID_nfl.p.31005 + ID_nfl.p.31008 + ID_nfl.p.31041 + ID_nfl.p.31074
 + ID_nfl.p.31082 + ID_nfl.p.31100 + ID_nfl.p.31135 + ID_nfl.p.31139
 + ID_nfl.p.31171 + ID_nfl.p.31207 + ID_nfl.p.31221 + ID_nfl.p.31228
 + ID_nfl.p.31278 + ID_nfl.p.31302 + ID_nfl.p.31379 + ID_nfl.p.31424
 + ID_nfl.p.31457 + ID_nfl.p.31500 + ID_nfl.p.31856 + ID_nfl.p.31885
 + ID_nfl.p.31905 + ID_nfl.p.31906 + ID_nfl.p.31919 + ID_nfl.p.31934
 + ID_nfl.p.31945 + ID_nfl.p.31986 + ID_nfl.p.32018 + ID_nfl.p.32026
 + ID_nfl.p.32036 + ID_nfl.p.32065 + ID_nfl.p.32344 + ID_nfl.p.32439
 + ID_nfl.p.32596 + ID_nfl.p.32608 + ID_nfl.p.7241 + ID_nfl.p.7306
 + ID_nfl.p.8261 + ID_nfl.p.9317 <= 3
_C6: ID_nfl.p.23997 + ID_nfl.p.24063 + ID_nfl.p.25755 + ID_nfl.p.25793
 + ID_nfl.p.25828 + ID_nfl.p.25876 + ID_nfl.p.26060 + ID_nfl.p.26652
 + ID_nfl.p.26699 + ID_nfl.p.27074 + ID_nfl.p.27277 + ID_nfl.p.27532
 + ID_nfl.p.27535 + ID_nfl.p.27540 + ID_nfl.p.27573 + ID_nfl.p.27589
 + ID_nfl.p.27591 + ID_nfl.p.27618 + ID_nfl.p.27619 + ID_nfl.p.27670
 + ID_nfl.p.27874 + ID_nfl.p.28026 + ID_nfl.p.28046 + ID_nfl.p.28214
 + ID_nfl.p.28234 + ID_nfl.p.28279 + ID_nfl.p.28402 + ID_nfl.p.28408
 + ID_nfl.p.28414 + ID_nfl.p.28417 + ID_nfl.p.28457 + ID_nfl.p.28493
 + ID_nfl.p.28534 + ID_nfl.p.28691 + ID_nfl.p.28800 + ID_nfl.p.28974
 + ID_nfl.p.29038 + ID_nfl.p.29070 + ID_nfl.p.29257 + ID_nfl.p.29341
 + ID_nfl.p.29360 + ID_nfl.p.29374 + ID_nfl.p.29397 + ID_nfl.p.29399
 + ID_nfl.p.29406 + ID_nfl.p.29420 + ID_nfl.p.29609 + ID_nfl.p.29631
 + ID_nfl.p.29719 + ID_nfl.p.29785 + ID_nfl.p.29958 + ID_nfl.p.30023
 + ID_nfl.p.30118 + ID_nfl.p.30120 + ID_nfl.p.30150 + ID_nfl.p.30153
 + ID_nfl.p.30175 + ID_nfl.p.30185 + ID_nfl.p.30197 + ID_nfl.p.30209
 + ID_nfl.p.30219 + ID_nfl.p.30231 + ID_nfl.p.30246 + ID_nfl.p.30285
 + ID_nfl.p.30339 + ID_nfl.p.30350 + ID_nfl.p.30430 + ID_nfl.p.30502
 + ID_nfl.p.30901 + ID_nfl.p.30959 + ID_nfl.p.30994 + ID_nfl.p.31010
 + ID_nfl.p.31021 + ID_nfl.p.31030 + ID_nfl.p.31075 + ID_nfl.p.31083
 + ID_nfl.p.31102 + ID_nfl.p.31114 + ID_nfl.p.31144 + ID_nfl.p.31148
 + ID_nfl.p.31155 + ID_nfl.p.31180 + ID_nfl.p.31194 + ID_nfl.p.31198
 + ID_nfl.p.31226 + ID_nfl.p.31268 + ID_nfl.p.31496 + ID_nfl.p.31588
 + ID_nfl.p.31601 + ID_nfl.p.31769 + ID_nfl.p.31777 + ID_nfl.p.31864
 + ID_nfl.p.31883 + ID_nfl.p.31888 + ID_nfl.p.31889 + ID_nfl.p.31891
 + ID_nfl.p.31896 + ID_nfl.p.31898 + ID_nfl.p.31908 + ID_nfl.p.31925
 + ID_nfl.p.31952 + ID_nfl.p.31981 + ID_nfl.p.32019 + ID_nfl.p.32038
 + ID_nfl.p.32040 + ID_nfl.p.32068 + ID_nfl.p.32079 + ID_nfl.p.32141
 + ID_nfl.p.32187 + ID_nfl.p.32231 + ID_nfl.p.32292 + ID_nfl.p.32342
 + ID_nfl.p.32378 + ID_nfl.p.32447 + ID_nfl.p.32523 + ID_nfl.p.32547
 + ID_nfl.p.8826 + ID_nfl.p.8930 + ID_nfl.p.9037 >= 3
_C7: ID_nfl.p.23997 + ID_nfl.p.24063 + ID_nfl.p.25755 + ID_nfl.p.25793
 + ID_nfl.p.25828 + ID_nfl.p.25876 + ID_nfl.p.26060 + ID_nfl.p.26652
 + ID_nfl.p.26699 + ID_nfl.p.27074 + ID_nfl.p.27277 + ID_nfl.p.27532
 + ID_nfl.p.27535 + ID_nfl.p.27540 + ID_nfl.p.27573 + ID_nfl.p.27589
 + ID_nfl.p.27591 + ID_nfl.p.27618 + ID_nfl.p.27619 + ID_nfl.p.27670
 + ID_nfl.p.27874 + ID_nfl.p.28026 + ID_nfl.p.28046 + ID_nfl.p.28214
 + ID_nfl.p.28234 + ID_nfl.p.28279 + ID_nfl.p.28402 + ID_nfl.p.28408
 + ID_nfl.p.28414 + ID_nfl.p.28417 + ID_nfl.p.28457 + ID_nfl.p.28493
 + ID_nfl.p.28534 + ID_nfl.p.28691 + ID_nfl.p.28800 + ID_nfl.p.28974
 + ID_nfl.p.29038 + ID_nfl.p.29070 + ID_nfl.p.29257 + ID_nfl.p.29341
 + ID_nfl.p.29360 + ID_nfl.p.29374 + ID_nfl.p.29397 + ID_nfl.p.29399
 + ID_nfl.p.29406 + ID_nfl.p.29420 + ID_nfl.p.29609 + ID_nfl.p.29631
 + ID_nfl.p.29719 + ID_nfl.p.29785 + ID_nfl.p.29958 + ID_nfl.p.30023
 + ID_nfl.p.30118 + ID_nfl.p.30120 + ID_nfl.p.30150 + ID_nfl.p.30153
 + ID_nfl.p.30175 + ID_nfl.p.30185 + ID_nfl.p.30197 + ID_nfl.p.30209
 + ID_nfl.p.30219 + ID_nfl.p.30231 + ID_nfl.p.30246 + ID_nfl.p.30285
 + ID_nfl.p.30339 + ID_nfl.p.30350 + ID_nfl.p.30430 + ID_nfl.p.30502
 + ID_nfl.p.30901 + ID_nfl.p.30959 + ID_nfl.p.30994 + ID_nfl.p.31010
 + ID_nfl.p.31021 + ID_nfl.p.31030 + ID_nfl.p.31075 + ID_nfl.p.31083
 + ID_nfl.p.31102 + ID_nfl.p.31114 + ID_nfl.p.31144 + ID_nfl.p.31148
 + ID_nfl.p.31155 + ID_nfl.p.31180 + ID_nfl.p.31194 + ID_nfl.p.31198
 + ID_nfl.p.31226 + ID_nfl.p.31268 + ID_nfl.p.31496 + ID_nfl.p.31588
 + ID_nfl.p.31601 + ID_nfl.p.31769 + ID_nfl.p.31777 + ID_nfl.p.31864
 + ID_nfl.p.31883 + ID_nfl.p.31888 + ID_nfl.p.31889 + ID_nfl.p.31891
 + ID_nfl.p.31896 + ID_nfl.p.31898 + ID_nfl.p.31908 + ID_nfl.p.31925
 + ID_nfl.p.31952 + ID_nfl.p.31981 + ID_nfl.p.32019 + ID_nfl.p.32038
 + ID_nfl.p.32040 + ID_nfl.p.32068 + ID_nfl.p.32079 + ID_nfl.p.32141
 + ID_nfl.p.32187 + ID_nfl.p.32231 + ID_nfl.p.32292 + ID_nfl.p.32342
 + ID_nfl.p.32378 + ID_nfl.p.32447 + ID_nfl.p.32523 + ID_nfl.p.32547
 + ID_nfl.p.8826 + ID_nfl.p.8930 + ID_nfl.p.9037 <= 4
_C8: ID_nfl.p.24070 + ID_nfl.p.24830 + ID_nfl.p.24834 + ID_nfl.p.24946
 + ID_nfl.p.24991 + ID_nfl.p.25370 + ID_nfl.p.26016 + ID_nfl.p.26050
 + ID_nfl.p.26416 + ID_nfl.p.26658 + ID_nfl.p.26678 + ID_nfl.p.26686
 + ID_nfl.p.26781 + ID_nfl.p.26824 + ID_nfl.p.27174 + ID_nfl.p.27299
 + ID_nfl.p.27494 + ID_nfl.p.27538 + ID_nfl.p.27648 + ID_nfl.p.27789
 + ID_nfl.p.28221 + ID_nfl.p.28365 + ID_nfl.p.28473 + ID_nfl.p.28505
 + ID_nfl.p.28531 + ID_nfl.p.28548 + ID_nfl.p.28559 + ID_nfl.p.28582
 + ID_nfl.p.28592 + ID_nfl.p.28658 + ID_nfl.p.29102 + ID_nfl.p.29269
 + ID_nfl.p.29328 + ID_nfl.p.29666 + ID_nfl.p.29913 + ID_nfl.p.30112
 + ID_nfl.p.30158 + ID_nfl.p.30213 + ID_nfl.p.30267 + ID_nfl.p.30468
 + ID_nfl.p.30494 + ID_nfl.p.30571 + ID_nfl.p.30661 + ID_nfl.p.30795
 + ID_nfl.p.30995 + ID_nfl.p.31012 + ID_nfl.p.31019 + ID_nfl.p.31056
 + ID_nfl.p.31071 + ID_nfl.p.31077 + ID_nfl.p.31093 + ID_nfl.p.31126
 + ID_nfl.p.31127 + ID_nfl.p.31257 + ID_nfl.p.31519 + ID_nfl.p.31840
 + ID_nfl.p.31852 + ID_nfl.p.31882 + ID_nfl.p.31907 + ID_nfl.p.31928
 + ID_nfl.p.31953 + ID_nfl.p.31969 + ID_nfl.p.32225 + ID_nfl.p.32295
 + ID_nfl.p.6791 + ID_nfl.p.7777 + ID_nfl.p.8285 >= 2
_C9: ID_nfl.p.24070 + ID_nfl.p.24830 + ID_nfl.p.24834 + ID_nfl.p.24946
 + ID_nfl.p.24991 + ID_nfl.p.25370 + ID_nfl.p.26016 + ID_nfl.p.26050
 + ID_nfl.p.26416 + ID_nfl.p.26658 + ID_nfl.p.26678 + ID_nfl.p.26686
 + ID_nfl.p.26781 + ID_nfl.p.26824 + ID_nfl.p.27174 + ID_nfl.p.27299
 + ID_nfl.p.27494 + ID_nfl.p.27538 + ID_nfl.p.27648 + ID_nfl.p.27789
 + ID_nfl.p.28221 + ID_nfl.p.28365 + ID_nfl.p.28473 + ID_nfl.p.28505
 + ID_nfl.p.28531 + ID_nfl.p.28548 + ID_nfl.p.28559 + ID_nfl.p.28582
 + ID_nfl.p.28592 + ID_nfl.p.28658 + ID_nfl.p.29102 + ID_nfl.p.29269
 + ID_nfl.p.29328 + ID_nfl.p.29666 + ID_nfl.p.29913 + ID_nfl.p.30112
 + ID_nfl.p.30158 + ID_nfl.p.30213 + ID_nfl.p.30267 + ID_nfl.p.30468
 + ID_nfl.p.30494 + ID_nfl.p.30571 + ID_nfl.p.30661 + ID_nfl.p.30795
 + ID_nfl.p.30995 + ID_nfl.p.31012 + ID_nfl.p.31019 + ID_nfl.p.31056
 + ID_nfl.p.31071 + ID_nfl.p.31077 + ID_nfl.p.31093 + ID_nfl.p.31126
 + ID_nfl.p.31127 + ID_nfl.p.31257 + ID_nfl.p.31519 + ID_nfl.p.31840
 + ID_nfl.p.31852 + ID_nfl.p.31882 + ID_nfl.p.31907 + ID_nfl.p.31928
 + ID_nfl.p.31953 + ID_nfl.p.31969 + ID_nfl.p.32225 + ID_nfl.p.32295
 + ID_nfl.p.6791 + ID_nfl.p.7777 + ID_nfl.p.8285 <= 3
Binaries
ID_nfl.p.23997
ID_nfl.p.24060
ID_nfl.p.24063
ID_nfl.p.24070
ID_nfl.p.24815
ID_nfl.p.24830
ID_nfl.p.24834
ID_nfl.p.24913
ID_nfl.p.24923
ID_nfl.p.24936
ID_nfl.p.24946
ID_nfl.p.24967
ID_nfl.p.24991
ID_nfl.p.25158
ID_nfl.p.25295
ID_nfl.p.25370
ID_nfl.p.25712
ID_nfl.p.25718
ID_nfl.p.25755
ID_nfl.p.25785
ID_nfl.p.25793
ID_nfl.p.25812
ID_nfl.p.25828
ID_nfl.p.25876
ID_nfl.p.26016
ID_nfl.p.26050
ID_nfl.p.26060
ID_nfl.p.26389
ID_nfl.p.26416
ID_nfl.p.26652
ID_nfl.p.26658
ID_nfl.p.26662
ID_nfl.p.26671
ID_nfl.p.26678
ID_nfl.p.26686
ID_nfl.p.26696
ID_nfl.p.26699
ID_nfl.p.26721
ID_nfl.p.26781
ID_nfl.p.26824
ID_nfl.p.26949
ID_nfl.p.27074
ID_nfl.p.27174
ID_nfl.p.27277
ID_nfl.p.27299
ID_nfl.p.27494
ID_nfl.p.27532
ID_nfl.p.27535
ID_nfl.p.27538
ID_nfl.p.27540
ID_nfl.p.27564
ID_nfl.p.27573
ID_nfl.p.27589
ID_nfl.p.27591
ID_nfl.p.27618
ID_nfl.p.27619
ID_nfl.p.27648
ID_nfl.p.27670
ID_nfl.p.27711
ID_nfl.p.27742
ID_nfl.p.27789
ID_nfl.p.27874
ID_nfl.p.28026
ID_nfl.p.28046
ID_nfl.p.28068
ID_nfl.p.28115
ID_nfl.p.28214
ID_nfl.p.28221
ID_nfl.p.28223
ID_nfl.p.28234
ID_nfl.p.28279
ID_nfl.p.28365
ID_nfl.p.28389
ID_nfl.p.28390
ID_nfl.p.28402
ID_nfl.p.28403
ID_nfl.p.28408
ID_nfl.p.28414
ID_nfl.p.28417
ID_nfl.p.28442
ID_nfl.p.28457
ID_nfl.p.28473
ID_nfl.p.28477
ID_nfl.p.28482
ID_nfl.p.28493
ID_nfl.p.28505
ID_nfl.p.28514
ID_nfl.p.28531
ID_nfl.p.28534
ID_nfl.p.28548
ID_nfl.p.28556
ID_nfl.p.28559
ID_nfl.p.28582
ID_nfl.p.28592
ID_nfl.p.28658
ID_nfl.p.28691
ID_nfl.p.28718
ID_nfl.p.28800
ID_nfl.p.28974
ID_nfl.p.29038
ID_nfl.p.29070
ID_nfl.p.29102
ID_nfl.p.29236
ID_nfl.p.29257
ID_nfl.p.29269
ID_nfl.p.29279
ID_nfl.p.29307
ID_nfl.p.29324
ID_nfl.p.29325
ID_nfl.p.29327
ID_nfl.p.29328
ID_nfl.p.29341
ID_nfl.p.29360
ID_nfl.p.29370
ID_nfl.p.29374
ID_nfl.p.29377
ID_nfl.p.29383
ID_nfl.p.29384
ID_nfl.p.29387
ID_nfl.p.29397
ID_nfl.p.29399
ID_nfl.p.29406
ID_nfl.p.29410
ID_nfl.p.29420
ID_nfl.p.29431
ID_nfl.p.29432
ID_nfl.p.29435
ID_nfl.p.29441
ID_nfl.p.29560
ID_nfl.p.29609
ID_nfl.p.29631
ID_nfl.p.29650
ID_nfl.p.29666
ID_nfl.p.29719
ID_nfl.p.29785
ID_nfl.p.29913
ID_nfl.p.29951
ID_nfl.p.29958
ID_nfl.p.30000
ID_nfl.p.30023
ID_nfl.p.30061
ID_nfl.p.30112
ID_nfl.p.30115
ID_nfl.p.30118
ID_nfl.p.30120
ID_nfl.p.30121
ID_nfl.p.30150
ID_nfl.p.30153
ID_nfl.p.30154
ID_nfl.p.30158
ID_nfl.p.30165
ID_nfl.p.30175
ID_nfl.p.30185
ID_nfl.p.30197
ID_nfl.p.30209
ID_nfl.p.30213
ID_nfl.p.30219
ID_nfl.p.30231
ID_nfl.p.30232
ID_nfl.p.30246
ID_nfl.p.30247
ID_nfl.p.30256
ID_nfl.p.30267
ID_nfl.p.30285
ID_nfl.p.30292
ID_nfl.p.30295
ID_nfl.p.30305
ID_nfl.p.30339
ID_nfl.p.30350
ID_nfl.p.30362
ID_nfl.p.30423
ID_nfl.p.30430
ID_nfl.p.30468
ID_nfl.p.30494
ID_nfl.p.30502
ID_nfl.p.30571
ID_nfl.p.30592
ID_nfl.p.30661
ID_nfl.p.30795
ID_nfl.p.30850
ID_nfl.p.30860
ID_nfl.p.30901
ID_nfl.p.30959
ID_nfl.p.30971
ID_nfl.p.30973
ID_nfl.p.30977
ID_nfl.p.30980
ID_nfl.p.30994
ID_nfl.p.30995
ID_nfl.p.30997
ID_nfl.p.31001
ID_nfl.p.31002
ID_nfl.p.31005
ID_nfl.p.31008
ID_nfl.p.31010
ID_nfl.p.31012
ID_nfl.p.31019
ID_nfl.p.31021
ID_nfl.p.31030
ID_nfl.p.31041
ID_nfl.p.31046
ID_nfl.p.31056
ID_nfl.p.31071
ID_nfl.p.31074
ID_nfl.p.31075
ID_nfl.p.31077
ID_nfl.p.31082
ID_nfl.p.31083
ID_nfl.p.31093
ID_nfl.p.31100
ID_nfl.p.31102
ID_nfl.p.31114
ID_nfl.p.31126
ID_nfl.p.31127
ID_nfl.p.31135
ID_nfl.p.31139
ID_nfl.p.31144
ID_nfl.p.31148
ID_nfl.p.31155
ID_nfl.p.31171
ID_nfl.p.31180
ID_nfl.p.31194
ID_nfl.p.31198
ID_nfl.p.31207
ID_nfl.p.31221
ID_nfl.p.31226
ID_nfl.p.31228
ID_nfl.p.31257
ID_nfl.p.31268
ID_nfl.p.31278
ID_nfl.p.31301
ID_nfl.p.31302
ID_nfl.p.31379
ID_nfl.p.31424
ID_nfl.p.31431
ID_nfl.p.31457
ID_nfl.p.31496
ID_nfl.p.31500
ID_nfl.p.31519
ID_nfl.p.31588
ID_nfl.p.31601
ID_nfl.p.31769
ID_nfl.p.31777
ID_nfl.p.31840
ID_nfl.p.31847
ID_nfl.p.31852
ID_nfl.p.31856
ID_nfl.p.31864
ID_nfl.p.31882
ID_nfl.p.31883
ID_nfl.p.31885
ID_nfl.p.31888
ID_nfl.p.31889
ID_nfl.p.31891
ID_nfl.p.31896
ID_nfl.p.31898
ID_nfl.p.31905
ID_nfl.p.31906
ID_nfl.p.31907
ID_nfl.p.31908
ID_nfl.p.31919
ID_nfl.p.31925
ID_nfl.p.31928
ID_nfl.p.31932
ID_nfl.p.31934
ID_nfl.p.31945
ID_nfl.p.31952
ID_nfl.p.31953
ID_nfl.p.31965
ID_nfl.p.31969
ID_nfl.p.31981
ID_nfl.p.31986
ID_nfl.p.31998
ID_nfl.p.32018
ID_nfl.p.32019
ID_nfl.p.32026
ID_nfl.p.32029
ID_nfl.p.32036
ID_nfl.p.32038
ID_nfl.p.32040
ID_nfl.p.32065
ID_nfl.p.32068
ID_nfl.p.32079
ID_nfl.p.32141
ID_nfl.p.32187
ID_nfl.p.32225
ID_nfl.p.32231
ID_nfl.p.32272
ID_nfl.p.32292
ID_nfl.p.32295
ID_nfl.p.32342
ID_nfl.p.32344
ID_nfl.p.32366
ID_nfl.p.32378
ID_nfl.p.32439
ID_nfl.p.32447
ID_nfl.p.32523
ID_nfl.p.32547
ID_nfl.p.32581
ID_nfl.p.32596
ID_nfl.p.32608
ID_nfl.p.5228
ID_nfl.p.5967
ID_nfl.p.6763
ID_nfl.p.6791
ID_nfl.p.7200
ID_nfl.p.7241
ID_nfl.p.7306
ID_nfl.p.7426
ID_nfl.p.7777
ID_nfl.p.8261
ID_nfl.p.8285
ID_nfl.p.8544
ID_nfl.p.8826
ID_nfl.p.8834
ID_nfl.p.8930
ID_nfl.p.9037
ID_nfl.p.9265
ID_nfl.p.9317
ID_nfl.p.9547
ID_nfl.p.9678
ID_nfl.t.10
ID_nfl.t.11
ID_nfl.t.12
ID_nfl.t.13
ID_nfl.t.15
ID_nfl.t.16
ID_nfl.t.17
ID_nfl.t.2
ID_nfl.t.20
ID_nfl.t.21
ID_nfl.t.23
ID_nfl.t.24
ID_nfl.t.26
ID_nfl.t.27
ID_nfl.t.28
ID_nfl.t.29
ID_nfl.t.3
ID_nfl.t.33
ID_nfl.t.5
ID_nfl.t.7
ID_nfl.t.8
ID_nfl.t.9
End
